NAME : portcgen-23-14
COMMENT : portcgen N=23, seed=14
TYPE : TSP
DIMENSION : 23
EDGE_WEIGHT_TYPE : EUC_2D
NODE_COORD_SECTION
1 -542019 -227915
2 -307355 375505
3 77015 -126485
4 130361 -95180
5 341154 -130784
6 148166 -149350
7 221900 -56594
8 302804 -53603
9 -46632 -233838
10 -168877 -50704
11 -137933 -62248
12 13683 61032
13 -255517 -68866
14 185962 455494
15 105252 231083
16 94466 88485
17 142799 -348373
18 104258 -101023
19 107479 -136688
20 -175508 221361
21 -263644 -342246
22 -117669 -318550
23 422716 -272408
